NAME : ClusterId_81 
COMMENT : (Gillet and Johnson) 
TYPE : CVRP 
DIMENSION : 32 
EDGE_WEIGHT_TYPE : EUC_2D 
CAPACITY : 60 
NODE_COORD_SECTION 
81 0 0 
33 -50 -50 
35 -50 50 
34 -50 0 
25 -40 -40 
26 -40 0 
27 -40 40 
17 -30 -30 
19 -30 30 
18 -30 0 
9 -20 -20 
11 -20 20 
10 -20 0 
1 -10 -10 
3 -10 10 
2 -10 0 
12 0 -20 
13 0 20 
4 0 -10 
5 0 10 
20 0 -30 
21 0 30 
36 0 -50 
37 0 50 
28 0 -40 
29 0 40 
6 10 -10 
8 10 10 
7 10 0 
14 20 -20 
16 20 20 
15 20 0 
DEMAND_SECTION 
81 2590
33 1
35 1
34 1
25 2
26 2
27 2
17 4
19 4
18 4
9 8
11 8
10 8
1 12
3 12
2 12
12 8
13 8
4 12
5 12
20 4
21 4
36 1
37 1
28 2
29 2
6 12
8 12
7 12
14 8
16 8
15 8
DEPOT_SECTION 
81
 -1
EOF